NAME: concorde91
TYPE: TSP
DIMENSION: 25 
EDGE_WEIGHT_TYPE: EUC_2D
NODE_COORD_SECTION
1 87 54
2 69 31
3 60 86
4 93 4
5 15 37
6 81 52
7 31 77
8 93 29
9 65 82
10 18 0
11 44 2
12 76 24
13 26 83
14 100 7
15 52 11
16 100 63
17 40 67
18 59 36
19 90 18
20 86 2
21 43 49
22 28 60
23 90 96
24 99 36
25 14 18
